17	4	3
35	30	32	32	23	39	28	
0	0	0	0	0	7	4	9	8	2	5	3	2	3	4
2	5	3	7	2	7	4	5	4	9	6	3	5	13	17
10	9	3	7	2	4	7	5	6	7	3	2	6	8
3	3	2	4	7	1	4	8	7	6	7	3	7	11	17
5	9	7	4	9	2	1	10	9	3	9	2	12	17
225	6	9	10	10	9	9	3	8	7	4	1	16
25	4	4	1	2	2	3	7	7	7	5	2	9	17
75	9	4	1	3	2	10	2	7	6	8	2	10	15
75	3	3	7	5	9	6	2	6	3	8	1	17
250	5	10	6	1	3	4	9	3	2	1	1	14
125	6	5	2	3	1	1	10	3	8	7	1	17
200	7	9	9	8	6	10	10	3	6	7	1	17
7	7	5	6	5	7	7	7	9	3	2	1	16
3	8	5	2	1	6	2	7	8	8	9	2	17	17
9	7	10	9	1	6	10	3	4	2	4	1	17
10	3	9	2	2	5	3	4	5	5	2	1	17
0	0	0	0	0	2	1	1	1	3	6	0
